
Log started (V11.0.0) Sat May 24 10:04:20 2008

Tried aggregator 1 time.
Reduced MIP has 540 rows, 20001 columns, and 40040 nonzeros.
Presolve time =    0.16 sec.
Clique table members: 500.
MIP emphasis: balance optimality and feasibility.
MIP search method: dynamic search.
Parallel mode: none, using 1 thread.
Root relaxation solution time =    1.72 sec.

        Nodes                                         Cuts/
   Node  Left     Objective  IInf  Best Integer     Best Node    ItCnt     Gap

*     0+    0                       525438.0000    12527.0734      888   97.62%
*     0+    0                        13055.0000    12527.0734      888    4.04%
      0     0    12538.1466    78    13055.0000      Fract: 5      969    3.96%
*     0+    0                        13041.0000    12538.1466      969    3.86%
      0     0    12548.7179    78    13041.0000   Flowcuts: 1     1091    3.77%
      0     0    12548.7387    81    13041.0000       Cuts: 2     1119    3.77%
      0     0    12548.7497    82    13041.0000   Flowcuts: 1     1143    3.77%
*     0+    0                        13038.0000    12548.7497     1143    3.75%
*     0+    0                        13037.0000    12548.7497     1143    3.75%
*     0+    0                        13036.0000    12548.7497     1143    3.74%
*     0+    0                        13035.0000    12548.7497     1143    3.73%
*     0+    0                        13031.0000    12548.7497     1143    3.70%
      0     2    12548.7497    82    13031.0000    12548.7497     1143    3.70%
*    60+   60                        13029.0000    12548.7498     1639    3.69%
    100   102    12549.1176    79    13029.0000    12548.7498     1770    3.69%
*   130+  130                        13028.0000    12548.7498     1890    3.68%
*   200+  186                        13027.0000    12548.7498     2166    3.67%
*   200+  185                        13026.0000    12548.7498     2166    3.66%
    200   187    12563.9407    78    13026.0000    12548.7498     2166    3.66%
    300   287    12566.1198    77    13026.0000    12548.7498     2619    3.66%
    400   387    12566.3354    79    13026.0000    12548.7498     3022    3.66%
    500   487    12566.6031    77    13026.0000    12548.7498     3535    3.66%
    600   523    12709.3099   123    13026.0000    12708.0235    27417    2.44%
    700   541    12709.8886   101    13026.0000    12708.0235    29230    2.44%
    800   566    12720.2515    92    13026.0000    12708.0235    30757    2.44%
    900   593    12720.4476    92    13026.0000    12708.0235    31896    2.44%
   1000   620    12720.7059    95    13026.0000    12708.0235    32749    2.44%
Elapsed time = 401.61 sec. (tree size =  8.37 MB, solutions = 12)
   1100   660    12720.9501    92    13026.0000    12708.0235    33703    2.44%
   1200   687    12731.0937    98    13026.0000    12708.0235    35987    2.44%
   1300   743    12731.3656    97    13026.0000    12708.0235    41298    2.44%
   1400   838    12742.4639    89    13026.0000    12708.0235    44654    2.44%
   1500   938    12742.5508    85    13026.0000    12708.0235    49232    2.44%
   1600  1033    12761.9161    86    13026.0000    12708.0235    53618    2.44%
   1700  1132    12762.1838    84    13026.0000    12708.0235    55758    2.44%
   1800  1232    12762.3278    83    13026.0000    12708.0235    56457    2.44%
   1900  1332    12762.6096    83    13026.0000    12708.0235    57275    2.44%
   2000  1432    12762.9421    82    13026.0000    12708.0235    57901    2.44%
Elapsed time = 643.05 sec. (tree size = 21.06 MB, solutions = 12)
   2100  1531    12763.0616    83    13026.0000    12708.0235    58945    2.44%
   2200  1631    12763.2256    82    13026.0000    12708.0235    59653    2.44%
   2300  1726    12765.9040    84    13026.0000    12708.0235    61910    2.44%
   2400  1826    12803.6729    88    13026.0000    12708.0235    64500    2.44%
   2500  1925    12816.2058    93    13026.0000    12708.0235    65376    2.44%
   2600  2025    12816.6566    87    13026.0000    12708.0235    68224    2.44%
   2700  2125    12817.1470    91    13026.0000    12708.0235    71031    2.44%
   2800  2225    12817.6785    91    13026.0000    12708.0235    73699    2.44%
   2900  2325    12847.3732    84    13026.0000    12708.0235    75567    2.44%
   3000  2425    12847.7112    85    13026.0000    12708.0235    79908    2.44%
Elapsed time = 826.00 sec. (tree size = 36.16 MB, solutions = 12)
   3100  2525    12848.2398    85    13026.0000    12708.0235    82549    2.44%
   3200  2625    12862.4757    82    13026.0000    12708.0235    86564    2.44%
   3300  2725    12863.1295    82    13026.0000    12708.0235    90225    2.44%
   3400  2825    12878.2802    86    13026.0000    12708.0235    92250    2.44%
   3500  2925    12878.5408    83    13026.0000    12708.0235    97615    2.44%
   3600  3025    12878.6795    82    13026.0000    12708.0235   101882    2.44%
   3700  3125    12878.8376    80    13026.0000    12708.0235   102445    2.44%
   3800  3225    12894.3210    80    13026.0000    12708.0235   105266    2.44%
   3900  3325    12894.5330    81    13026.0000    12708.0235   105753    2.44%
   4000  3425    12894.7394    81    13026.0000    12708.0235   106204    2.44%
Elapsed time = 973.58 sec. (tree size = 51.32 MB, solutions = 12)
   4100  3517    12896.7156    71    13026.0000    12708.0235   107093    2.44%
   4200  3617    12974.0136    47    13026.0000    12708.0235   108944    2.44%
   4300  3714    12980.2125    43    13026.0000    12708.0235   109400    2.44%
   4400  3814    13021.5883    42    13026.0000    12708.0235   109822    2.44%
   4500  3898    13023.5670    42    13026.0000    12708.0235   110338    2.44%
   4600  3989    13025.0794    42    13026.0000    12708.0235   110817    2.44%
   4700  4082    12709.3247   135    13026.0000    12708.0259   114055    2.44%
   4800  4182    12709.9277    98    13026.0000    12708.0259   117257    2.44%
   4900  4279    12710.3839    92    13026.0000    12708.0259   118416    2.44%
   5000  4379    12731.2965   101    13026.0000    12708.0259   123788    2.44%
Elapsed time = 1080.39 sec. (tree size = 65.45 MB, solutions = 12)
   5100  4478    12733.3021   100    13026.0000    12708.0259   124590    2.44%
   5200  4576    12743.9555    98    13026.0000    12708.0259   125508    2.44%
   5300  4676    12744.2615    98    13026.0000    12708.0259   127258    2.44%
   5400  4776    12744.6426    94    13026.0000    12708.0259   128804    2.44%
   5500  4876    12745.0601    96    13026.0000    12708.0259   130695    2.44%
   5600  4976    12756.0187    96    13026.0000    12708.0259   134394    2.44%
   5700  5076    12756.2981    91    13026.0000    12708.0259   135067    2.44%
   5800  5161    12756.6787    96    13026.0000    12708.0259   135739    2.44%
   5900  5259    12768.4129    89    13026.0000    12708.0259   137751    2.44%
   6000  5355    12793.7329    87    13026.0000    12708.0259   140369    2.44%
Elapsed time = 1218.88 sec. (tree size = 80.77 MB, solutions = 12)
   6100  5455    12794.2338    83    13026.0000    12708.0259   142950    2.44%
   6200  5555    12794.8642    85    13026.0000    12708.0259   144010    2.44%
   6300  5654    12807.0702    83    13026.0000    12708.0259   145812    2.44%
   6400  5753    12822.3562    81    13026.0000    12708.0259   147863    2.44%
   6500  5853    12822.7114    80    13026.0000    12708.0259   150665    2.44%
   6600  5953    12823.0929    82    13026.0000    12708.0259   153602    2.44%
   6700  6053    12834.2398    83    13026.0000    12708.0259   155643    2.44%
   6800  6153    12834.7575    80    13026.0000    12708.0259   157426    2.44%
   6900  6253    12835.1462    82    13026.0000    12708.0259   160054    2.44%
   7000  6353    12848.4352    83    13026.0000    12708.0259   162511    2.44%
Elapsed time = 1395.45 sec. (tree size = 96.45 MB, solutions = 12)
   7100  6453    12848.9213    81    13026.0000    12708.0259   164140    2.44%
   7200  6553    12851.0197    86    13026.0000    12708.0259   165136    2.44%
   7300  6653    12868.3442    82    13026.0000    12708.0259   166292    2.44%
   7400  6753    12883.3006    81    13026.0000    12708.0259   172430    2.44%
   7500  6853    12869.0720    79    13026.0000    12708.0259   175351    2.44%
   7600  6953    12869.8005    85    13026.0000    12708.0259   176615    2.44%
   7700  7053    12870.0195    84    13026.0000    12708.0259   177257    2.44%
   7800  7152    12871.9412    86    13026.0000    12708.0259   178338    2.44%
   7900  7252    12899.9923    75    13026.0000    12708.0259   183453    2.44%
   8000  7352    12900.2291    69    13026.0000    12708.0259   187488    2.44%
Elapsed time = 1534.59 sec. (tree size = 112.16 MB, solutions = 12)
   8100  7452    12900.4865    71    13026.0000    12708.0259   188476    2.44%
   8200  7528    12904.6683    68    13026.0000    12708.0259   189579    2.44%
   8300  7624    12709.3596   503    13026.0000    12708.3373   242894    2.44%
   8400  7724    12709.7736   374    13026.0000    12708.3376   253368    2.44%
   8500  7824    12710.6345   208    13026.0000    12708.3376   257925    2.44%
   8600  7924    12715.4681   402    13026.0000    12708.3380   267785    2.44%
   8700  8024    12735.3601   211    13026.0000    12708.3380   278069    2.44%
Began writing nodes to disk (directory ./cpxa01652 created)
   8800  8124    12721.4810   383    13026.0000    12708.3388   292625    2.44%
   8900  8224    12735.7127   196    13026.0000    12708.3388   299293    2.44%
   9000  8324    12714.9769   377    13026.0000    12708.3403   309219    2.44%
Elapsed time = 2647.95 sec. (tree size = 133.95 MB, solutions = 12)
Nodefile size =  6.61 MB (1.92 MB after compression)
   9100  8424    12721.8253   185    13026.0000    12708.3403   315065    2.44%
   9200  8524    12710.2157   321    13026.0000    12708.3407   325833    2.44%
   9300  8624    12711.0206   192    13026.0000    12708.3407   329198    2.44%
   9400  8724    12710.1119   375    13026.0000    12708.3414   341409    2.44%
   9500  8824    12710.9884   240    13026.0000    12708.3414   349154    2.44%
   9600  8924    12721.4899   337    13026.0000    12708.3416   364952    2.44%
   9700  9024    12722.1294   219    13026.0000    12708.3416   368102    2.44%
   9800  9124    12710.3201   384    13026.0000    12708.3432   381337    2.44%
   9900  9224    12716.1524   284    13026.0000    12708.3432   384912    2.44%
  10000  9324    12710.1124   395    13026.0000    12708.3474   396168    2.44%
Elapsed time = 3412.31 sec. (tree size = 159.00 MB, solutions = 12)
Nodefile size = 31.22 MB (12.75 MB after compression)
  10100  9424    12710.8410   242    13026.0000    12708.3474   401181    2.44%
  10200  9524    12715.1768   311    13026.0000    12708.3476   415011    2.44%
  10300  9624    12721.6672   215    13026.0000    12708.3476   420596    2.44%
  10400  9724    12710.3259   337    13026.0000    12708.3526   431067    2.44%
  10500  9824    12711.1282   203    13026.0000    12708.3526   433626    2.44%
  10600  9924    12710.3499   355    13026.0000    12708.3526   446011    2.44%
  10700 10024    12716.0186   232    13026.0000    12708.3526   450495    2.44%
  10800 10124    12710.2010   345    13026.0000    12708.3589   463370    2.44%
  10900 10224    12711.0385   235    13026.0000    12708.3589   468119    2.44%
  11000 10324    12715.8286   374    13026.0000    12708.3603   484764    2.44%
Elapsed time = 4085.91 sec. (tree size = 185.24 MB, solutions = 12)
Nodefile size = 57.90 MB (24.84 MB after compression)
  11100 10424    12716.9206   220    13026.0000    12708.3603   487782    2.44%
  11200 10524    12710.3121   360    13026.0000    12708.3627   501218    2.44%
  11300 10624    12711.3230   204    13026.0000    12708.3627   504582    2.44%
  11400 10724    12710.3404   340    13026.0000    12708.3627   514803    2.44%
  11500 10824    12711.0720   225    13026.0000    12708.3627   517036    2.44%
  11600 10924    12710.0262   338    13026.0000    12708.3634   534160    2.44%
  11700 11024    12710.8824   228    13026.0000    12708.3634   538322    2.44%
  11800 11124    12710.2030   386    13026.0000    12708.3637   553156    2.44%
  11900 11224    12722.6076   231    13026.0000    12708.3637   558080    2.44%
  12000 11324    12710.3286   373    13026.0000    12708.3638   570051    2.44%
Elapsed time = 4720.77 sec. (tree size = 212.65 MB, solutions = 12)
Nodefile size = 85.21 MB (34.89 MB after compression)
  12100 11424    12711.3710   256    13026.0000    12708.3638   574291    2.44%
  12200 11524    12710.3732   353    13026.0000    12708.3652   589356    2.44%
  12300 11624    12711.4571   266    13026.0000    12708.3652   593130    2.44%
  12400 11724    12710.2266   368    13026.0000    12708.3655   606817    2.44%
  12500 11824    12710.9650   223    13026.0000    12708.3655   611925    2.44%
  12600 11924    12710.4624   373    13026.0000    12708.3667   623975    2.44%
  12700 12024    12711.5131   262    13026.0000    12708.3667   627935    2.44%
  12800 12124    12710.3212   429    13026.0000    12708.3707   643874    2.44%
  12900 12224    12716.9558   255    13026.0000    12708.3707   652741    2.44%
  13000 12324    12710.4594   411    13026.0000    12708.3714   665714    2.44%
Elapsed time = 5425.27 sec. (tree size = 241.22 MB, solutions = 12)
Nodefile size = 113.76 MB (51.47 MB after compression)
  13100 12424    12711.4736   244    13026.0000    12708.3714   669112    2.44%
  13200 12524    12710.4409   348    13026.0000    12708.3723   682306    2.44%
  13300 12624    12711.3998   218    13026.0000    12708.3723   685512    2.44%
  13400 12724    12710.4549   359    13026.0000    12708.3751   702123    2.44%
  13500 12824    12711.4229   234    13026.0000    12708.3751   706892    2.44%
  13600 12924    12710.2629   412    13026.0000    12708.3786   720873    2.44%
  13700 13024    12716.9532   269    13026.0000    12708.3786   725840    2.44%
  13800 13124    12710.3190   370    13026.0000    12708.3800   739130    2.44%
  13900 13224    12711.1505   223    13026.0000    12708.3800   742786    2.44%
  14000 13324    12710.1809   374    13026.0000    12708.3829   754799    2.44%
Elapsed time = 6092.19 sec. (tree size = 270.86 MB, solutions = 12)
Nodefile size = 143.33 MB (71.71 MB after compression)
  14100 13424    12710.9990   235    13026.0000    12708.3829   760129    2.44%
  14200 13524    12710.3572   403    13026.0000    12708.3836   773743    2.44%
  14300 13624    12712.0721   276    13026.0000    12708.3836   777464    2.44%
  14400 13724    12710.1470   331    13026.0000    12708.3846   795821    2.44%
  14500 13824    12710.8755   215    13026.0000    12708.3846   802872    2.44%
  14600 13924    12710.4867   353    13026.0000    12708.3848   815619    2.44%
  14700 14024    12711.4921   275    13026.0000    12708.3848   820025    2.44%
  14800 14124    12710.1372   351    13026.0000    12708.3892   831967    2.44%
  14900 14224    12710.8994   255    13026.0000    12708.3892   837431    2.44%
  15000 14324    12710.4352   370    13026.0000    12708.3912   853714    2.44%
Elapsed time = 6878.23 sec. (tree size = 301.62 MB, solutions = 12)
Nodefile size = 173.89 MB (95.88 MB after compression)
  15100 14424    12717.2871   282    13026.0000    12708.3912   858310    2.44%
  15200 14524    12710.5310   382    13026.0000    12708.3942   873458    2.44%

Cover cuts applied:  1706
Flow cuts applied:  8
Gomory fractional cuts applied:  24

Solution pool: 12 solutions saved.

MIP - Time limit exceeded, integer feasible:  Objective = 1.3026000000e+004
Current MIP best bound = 1.2708394165e+004 (gap = 317.606, 2.44%)
Solution time = 7200.36 sec.  Iterations = 873769  Nodes = 15208 (14531)


Incumbent solution
Variable Name           Solution Value
Cmax                      13026.000000
X_1_4                         1.000000
X_2_17                        1.000000
X_3_1                         1.000000
X_4_26                        1.000000
X_5_30                        1.000000
X_6_9                         1.000000
X_7_14                        1.000000
X_8_37                        1.000000
X_9_28                        1.000000
X_10_40                       1.000000
X_11_11                       1.000000
X_12_27                       1.000000
X_13_30                       1.000000
X_14_38                       1.000000
X_15_2                        1.000000
X_16_35                       1.000000
X_17_27                       1.000000
X_18_35                       1.000000
X_19_6                        1.000000
X_20_11                       1.000000
X_21_11                       1.000000
X_22_19                       1.000000
X_23_32                       1.000000
X_24_16                       1.000000
X_25_15                       1.000000
X_26_15                       1.000000
X_27_29                       1.000000
X_28_39                       1.000000
X_29_2                        1.000000
X_30_15                       1.000000
X_31_34                       1.000000
X_32_33                       1.000000
X_33_31                       1.000000
X_34_16                       1.000000
X_35_17                       1.000000
X_36_24                       1.000000
X_37_3                        1.000000
X_38_27                       1.000000
X_39_32                       1.000000
X_40_21                       1.000000
X_41_23                       1.000000
X_42_21                       1.000000
X_43_32                       1.000000
X_44_29                       1.000000
X_45_14                       1.000000
X_46_17                       1.000000
X_47_11                       1.000000
X_48_37                       1.000000
X_49_10                       1.000000
X_50_37                       1.000000
X_51_30                       1.000000
X_52_20                       1.000000
X_53_26                       1.000000
X_54_36                       1.000000
X_55_21                       1.000000
X_56_40                       1.000000
X_57_7                        1.000000
X_58_24                       1.000000
X_59_7                        1.000000
X_60_33                       1.000000
X_61_32                       1.000000
X_62_39                       1.000000
X_63_34                       1.000000
X_64_9                        1.000000
X_65_39                       1.000000
X_66_20                       1.000000
X_67_25                       1.000000
X_68_23                       1.000000
X_69_6                        1.000000
X_70_7                        1.000000
X_71_24                       1.000000
X_72_5                        1.000000
X_73_36                       1.000000
X_74_23                       1.000000
X_75_23                       1.000000
X_76_20                       1.000000
X_77_22                       1.000000
X_78_27                       1.000000
X_79_12                       1.000000
X_80_5                        1.000000
X_81_16                       1.000000
X_82_20                       1.000000
X_83_32                       1.000000
X_84_18                       1.000000
X_85_12                       1.000000
X_86_15                       1.000000
X_87_25                       1.000000
X_88_8                        1.000000
X_89_13                       1.000000
X_90_12                       1.000000
X_91_17                       1.000000
X_92_17                       1.000000
X_93_9                        1.000000
X_94_31                       1.000000
X_95_34                       1.000000
X_96_9                        1.000000
X_97_38                       1.000000
X_98_17                       1.000000
X_99_39                       1.000000
X_100_35                      1.000000
X_101_7                       1.000000
X_102_33                      1.000000
X_103_31                      1.000000
X_104_11                      1.000000
X_105_37                      1.000000
X_106_21                      1.000000
X_107_33                      1.000000
X_108_2                       1.000000
X_109_17                      1.000000
X_110_18                      1.000000
X_111_30                      1.000000
X_112_27                      1.000000
X_113_10                      1.000000
X_114_14                      1.000000
X_115_28                      1.000000
X_116_34                      1.000000
X_117_4                       1.000000
X_118_26                      1.000000
X_119_28                      1.000000
X_120_5                       1.000000
X_121_30                      1.000000
X_122_40                      1.000000
X_123_10                      1.000000
X_124_12                      1.000000
X_125_5                       1.000000
X_126_9                       1.000000
X_127_8                       1.000000
X_128_12                      1.000000
X_129_30                      1.000000
X_130_24                      1.000000
X_131_15                      1.000000
X_132_23                      1.000000
X_133_19                      1.000000
X_134_31                      1.000000
X_135_13                      1.000000
X_136_1                       1.000000
X_137_5                       1.000000
X_138_28                      1.000000
X_139_26                      1.000000
X_140_5                       1.000000
X_141_28                      1.000000
X_142_6                       1.000000
X_143_18                      1.000000
X_144_3                       1.000000
X_145_18                      1.000000
X_146_30                      1.000000
X_147_16                      1.000000
X_148_12                      1.000000
X_149_3                       1.000000
X_150_20                      1.000000
X_151_9                       1.000000
X_152_13                      1.000000
X_153_31                      1.000000
X_154_3                       1.000000
X_155_15                      1.000000
X_156_3                       1.000000
X_157_3                       1.000000
X_158_13                      1.000000
X_159_27                      1.000000
X_160_29                      1.000000
X_161_25                      1.000000
X_162_22                      1.000000
X_163_23                      1.000000
X_164_11                      1.000000
X_165_18                      1.000000
X_166_4                       1.000000
X_167_32                      1.000000
X_168_29                      1.000000
X_169_15                      1.000000
X_170_11                      1.000000
X_171_38                      1.000000
X_172_26                      1.000000
X_173_28                      1.000000
X_174_8                       1.000000
X_175_30                      1.000000
X_176_23                      1.000000
X_177_24                      1.000000
X_178_8                       1.000000
X_179_11                      1.000000
X_180_36                      1.000000
X_181_13                      1.000000
X_182_38                      1.000000
X_183_4                       1.000000
X_184_11                      1.000000
X_185_6                       1.000000
X_186_28                      1.000000
X_187_29                      1.000000
X_188_4                       1.000000
X_189_27                      1.000000
X_190_25                      1.000000
X_191_30                      1.000000
X_192_21                      1.000000
X_193_28                      1.000000
X_194_4                       1.000000
X_195_38                      1.000000
X_196_29                      1.000000
X_197_15                      1.000000
X_198_7                       1.000000
X_199_1                       1.000000
X_200_3                       1.000000
X_201_33                      1.000000
X_202_20                      1.000000
X_203_10                      1.000000
X_204_16                      1.000000
X_205_10                      1.000000
X_206_18                      1.000000
X_207_6                       1.000000
X_208_16                      1.000000
X_209_12                      1.000000
X_210_36                      1.000000
X_211_28                      1.000000
X_212_38                      1.000000
X_213_36                      1.000000
X_214_23                      1.000000
X_215_39                      1.000000
X_216_18                      1.000000
X_217_39                      1.000000
X_218_17                      1.000000
X_219_16                      1.000000
X_220_36                      1.000000
X_221_22                      1.000000
X_222_2                       1.000000
X_223_20                      1.000000
X_224_18                      1.000000
X_225_34                      1.000000
X_226_14                      1.000000
X_227_13                      1.000000
X_228_25                      1.000000
X_229_8                       1.000000
X_230_37                      1.000000
X_231_28                      1.000000
X_232_24                      1.000000
X_233_29                      1.000000
X_234_9                       1.000000
X_235_13                      1.000000
X_236_10                      1.000000
X_237_38                      1.000000
X_238_11                      1.000000
X_239_4                       1.000000
X_240_32                      1.000000
X_241_12                      1.000000
X_242_23                      1.000000
X_243_21                      1.000000
X_244_16                      1.000000
X_245_33                      1.000000
X_246_37                      1.000000
X_247_13                      1.000000
X_248_24                      1.000000
X_249_38                      1.000000
X_250_20                      1.000000
X_251_29                      1.000000
X_252_19                      1.000000
X_253_27                      1.000000
X_254_8                       1.000000
X_255_2                       1.000000
X_256_16                      1.000000
X_257_33                      1.000000
X_258_29                      1.000000
X_259_25                      1.000000
X_260_30                      1.000000
X_261_2                       1.000000
X_262_1                       1.000000
X_263_37                      1.000000
X_264_19                      1.000000
X_265_33                      1.000000
X_266_6                       1.000000
X_267_8                       1.000000
X_268_11                      1.000000
X_269_7                       1.000000
X_270_33                      1.000000
X_271_18                      1.000000
X_272_32                      1.000000
X_273_6                       1.000000
X_274_28                      1.000000
X_275_40                      1.000000
X_276_18                      1.000000
X_277_6                       1.000000
X_278_24                      1.000000
X_279_5                       1.000000
X_280_22                      1.000000
X_281_1                       1.000000
X_282_25                      1.000000
X_283_7                       1.000000
X_284_14                      1.000000
X_285_31                      1.000000
X_286_2                       1.000000
X_287_28                      1.000000
X_288_1                       1.000000
X_289_22                      1.000000
X_290_1                       1.000000
X_291_22                      1.000000
X_292_1                       1.000000
X_293_19                      1.000000
X_294_4                       1.000000
X_295_1                       1.000000
X_296_7                       1.000000
X_297_40                      1.000000
X_298_17                      1.000000
X_299_4                       1.000000
X_300_36                      1.000000
X_301_22                      1.000000
X_302_3                       1.000000
X_303_7                       1.000000
X_304_26                      1.000000
X_305_7                       1.000000
X_306_38                      1.000000
X_307_1                       1.000000
X_308_24                      1.000000
X_309_34                      1.000000
X_310_19                      1.000000
X_311_30                      1.000000
X_312_29                      1.000000
X_313_35                      1.000000
X_314_26                      1.000000
X_315_31                      1.000000
X_316_32                      1.000000
X_317_38                      1.000000
X_318_25                      1.000000
X_319_12                      1.000000
X_320_13                      1.000000
X_321_6                       1.000000
X_322_10                      1.000000
X_323_40                      1.000000
X_324_26                      1.000000
X_325_36                      1.000000
X_326_27                      1.000000
X_327_16                      1.000000
X_328_15                      1.000000
X_329_10                      1.000000
X_330_24                      1.000000
X_331_1                       1.000000
X_332_37                      1.000000
X_333_21                      1.000000
X_334_19                      1.000000
X_335_25                      1.000000
X_336_39                      1.000000
X_337_37                      1.000000
X_338_15                      1.000000
X_339_5                       1.000000
X_340_39                      1.000000
X_341_35                      1.000000
X_342_16                      1.000000
X_343_5                       1.000000
X_344_39                      1.000000
X_345_7                       1.000000
X_346_35                      1.000000
X_347_37                      1.000000
X_348_7                       1.000000
X_349_36                      1.000000
X_350_13                      1.000000
X_351_29                      1.000000
X_352_17                      1.000000
X_353_21                      1.000000
X_354_40                      1.000000
X_355_6                       1.000000
X_356_23                      1.000000
X_357_19                      1.000000
X_358_20                      1.000000
X_359_14                      1.000000
X_360_9                       1.000000
X_361_40                      1.000000
X_362_33                      1.000000
X_363_36                      1.000000
X_364_24                      1.000000
X_365_16                      1.000000
X_366_13                      1.000000
X_367_36                      1.000000
X_368_16                      1.000000
X_369_9                       1.000000
X_370_19                      1.000000
X_371_9                       1.000000
X_372_2                       1.000000
X_373_32                      1.000000
X_374_20                      1.000000
X_375_18                      1.000000
X_376_2                       1.000000
X_377_35                      1.000000
X_378_19                      1.000000
X_379_24                      1.000000
X_380_3                       1.000000
X_381_32                      1.000000
X_382_12                      1.000000
X_383_34                      1.000000
X_384_34                      1.000000
X_385_10                      1.000000
X_386_18                      1.000000
X_387_14                      1.000000
X_388_8                       1.000000
X_389_35                      1.000000
X_390_31                      1.000000
X_391_9                       1.000000
X_392_12                      1.000000
X_393_34                      1.000000
X_394_40                      1.000000
X_395_10                      1.000000
X_396_32                      1.000000
X_397_19                      1.000000
X_398_10                      1.000000
X_399_40                      1.000000
X_400_13                      1.000000
X_401_2                       1.000000
X_402_8                       1.000000
X_403_20                      1.000000
X_404_31                      1.000000
X_405_35                      1.000000
X_406_5                       1.000000
X_407_2                       1.000000
X_408_33                      1.000000
X_409_26                      1.000000
X_410_37                      1.000000
X_411_14                      1.000000
X_412_27                      1.000000
X_413_38                      1.000000
X_414_15                      1.000000
X_415_15                      1.000000
X_416_21                      1.000000
X_417_17                      1.000000
X_418_1                       1.000000
X_419_31                      1.000000
X_420_40                      1.000000
X_421_31                      1.000000
X_422_27                      1.000000
X_423_14                      1.000000
X_424_5                       1.000000
X_425_10                      1.000000
X_426_3                       1.000000
X_427_6                       1.000000
X_428_1                       1.000000
X_429_35                      1.000000
X_430_35                      1.000000
X_431_4                       1.000000
X_432_36                      1.000000
X_433_2                       1.000000
X_434_29                      1.000000
X_435_8                       1.000000
X_436_35                      1.000000
X_437_34                      1.000000
X_438_3                       1.000000
X_439_4                       1.000000
X_440_38                      1.000000
X_441_20                      1.000000
X_442_26                      1.000000
X_443_40                      1.000000
X_444_21                      1.000000
X_445_18                      1.000000
X_446_40                      1.000000
X_447_23                      1.000000
X_448_39                      1.000000
X_449_37                      1.000000
X_450_22                      1.000000
X_451_35                      1.000000
X_452_8                       1.000000
X_453_6                       1.000000
X_454_32                      1.000000
X_455_12                      1.000000
X_456_34                      1.000000
X_457_4                       1.000000
X_458_2                       1.000000
X_459_11                      1.000000
X_460_22                      1.000000
X_461_39                      1.000000
X_462_13                      1.000000
X_463_14                      1.000000
X_464_23                      1.000000
X_465_24                      1.000000
X_466_26                      1.000000
X_467_8                       1.000000
X_468_22                      1.000000
X_469_5                       1.000000
X_470_31                      1.000000
X_471_15                      1.000000
X_472_34                      1.000000
X_473_9                       1.000000
X_474_21                      1.000000
X_475_28                      1.000000
X_476_33                      1.000000
X_477_11                      1.000000
X_478_21                      1.000000
X_479_23                      1.000000
X_480_22                      1.000000
X_481_3                       1.000000
X_482_19                      1.000000
X_483_37                      1.000000
X_484_22                      1.000000
X_485_30                      1.000000
X_486_14                      1.000000
X_487_39                      1.000000
X_488_27                      1.000000
X_489_7                       1.000000
X_490_33                      1.000000
X_491_14                      1.000000
X_492_25                      1.000000
X_493_22                      1.000000
X_494_25                      1.000000
X_495_25                      1.000000
X_496_31                      1.000000
X_497_17                      1.000000
X_498_26                      1.000000
X_499_36                      1.000000
X_500_6                       1.000000
All other variables in the range 1-20001 are 0.
